10
1 0 3
2 0 13
2 1 5
3 0 4
3 1 7
3 2 2
4 0 8
4 1 13
4 2 8
4 3 12
5 0 1
5 1 1
5 2 7
5 3 3
5 4 11
6 0 1
6 1 1
6 2 2
6 3 3
6 4 6
6 5 13
7 0 9
7 1 11
7 2 9
7 3 1
7 4 11
7 5 4
7 6 7
8 0 1
8 1 1
8 2 12
8 3 7
8 4 5
8 5 10
8 6 7
8 7 1
9 0 6
9 1 4
9 2 9
9 3 3
9 4 4
9 5 7
9 6 3
9 7 11
9 8 5
